
Gurobi 6.5.0 (linux64) logging started Wed Dec  2 19:14:10 2015


Gurobi 6.5.0 (linux64) logging started Wed Dec  2 23:41:50 2015


Gurobi 6.5.0 (linux64) logging started Thu Dec  3 01:14:33 2015


Gurobi 6.5.0 (linux64) logging started Thu Dec  3 16:12:20 2015

